p cnf 33 97
-3 1 0
-3 -2 0
-1 2 3 0
-5 -6 0
5 -6 0
7 -4 0
7 -6 0
4 6 -7 0
-8 -3 0
-8 -7 0
3 7 8 0
-12 -10 0
-12 -11 0
10 11 12 0
9 -12 -13 0
-9 12 -13 0
9 12 13 0
-9 -12 13 0
2 -10 -14 0
-2 10 -14 0
2 10 14 0
-2 -10 14 0
16 -15 0
16 -4 0
15 4 -16 0
-17 -14 0
-17 -16 0
14 16 17 0
-18 11 0
-18 4 0
-11 -4 18 0
19 11 0
19 -18 0
-11 18 -19 0
-20 17 0
-20 -19 0
-17 19 20 0
21 -13 0
21 -20 0
13 20 -21 0
22 4 0
22 -9 0
-4 9 -22 0
-23 -21 0
-23 22 0
21 -22 23 0
25 -24 0
25 -5 0
24 5 -25 0
26 -4 0
26 25 0
4 -25 -26 0
-26 -27 -28 0
26 27 -28 0
-26 27 28 0
26 -27 28 0
29 5 0
29 4 0
-5 -4 -29 0
27 29 -30 0
-27 -29 -30 0
27 -29 30 0
-27 29 30 0
-31 28 0
-31 -30 0
-28 30 31 0
-23 31 -32 0
23 -31 -32 0
-23 -31 32 0
23 31 32 0
8 32 -33 0
-8 -32 -33 0
8 -32 33 0
-8 32 33 0
-16 -8 21 6 12 0
-24 -29 -15 0
-19 16 -28 0
-2 -21 0
33 -8 14 19 -4 0
13 -20 -15 23 -27 0
-8 33 20 6 -12 0
26 14 19 32 16 0
18 -31 10 -25 -1 -5 0
23 26 12 0
-17 4 -12 23 0
14 19 24 0
6 5 13 0
-28 25 1 32 -29 10 0
-8 -26 -29 0
9 -17 0
8 -7 -10 13 0
-15 4 8 27 0
-23 30 -20 15 7 0
-28 8 27 0
-13 30 12 0
21 -7 -31 0
33 0
